# Solution for model breathing_srl_ilp
# Objective value = 3.6414996961944297e+01
Z_342_0_0 0
Z_342_0_1 0
Z_342_0_2 1
Z_342_0_3 0
Z_342_0_4 0
Z_186_0_0 0
Z_186_0_1 1
Z_186_0_2 0
Z_186_0_3 0
Z_186_0_4 0
Z_704_6_0 0
Z_704_6_1 0
Z_704_6_2 0
Z_704_6_3 0
Z_704_6_4 1
Z_704_0_0 0
Z_704_0_1 0
Z_704_0_2 0
Z_704_0_3 0
Z_704_0_4 1
Z_704_5_0 0
Z_704_5_1 0
Z_704_5_2 0
Z_704_5_3 0
Z_704_5_4 1
Z_704_2_0 0
Z_704_2_1 0
Z_704_2_2 1
Z_704_2_3 0
Z_704_2_4 0
Z_704_3_0 0
Z_704_3_1 0
Z_704_3_2 0
Z_704_3_3 0
Z_704_3_4 1
Z_704_1_0 0
Z_704_1_1 0
Z_704_1_2 0
Z_704_1_3 0
Z_704_1_4 1
Z_6_0_0 0
Z_6_0_1 1
Z_6_0_2 0
Z_6_0_3 0
Z_6_0_4 0
Z_456_1_0 0
Z_456_1_1 0
Z_456_1_2 0
Z_456_1_3 0
Z_456_1_4 1
Z_456_2_0 0
Z_456_2_1 0
Z_456_2_2 0
Z_456_2_3 1
Z_456_2_4 0
Z_456_0_0 0
Z_456_0_1 0
Z_456_0_2 1
Z_456_0_3 0
Z_456_0_4 0
Z_305_0_0 0
Z_305_0_1 0
Z_305_0_2 0
Z_305_0_3 0
Z_305_0_4 1
Z_305_8_0 0
Z_305_8_1 0
Z_305_8_2 0
Z_305_8_3 0
Z_305_8_4 1
Z_305_3_0 0
Z_305_3_1 0
Z_305_3_2 0
Z_305_3_3 0
Z_305_3_4 1
Z_305_7_0 0
Z_305_7_1 0
Z_305_7_2 0
Z_305_7_3 0
Z_305_7_4 1
Z_305_6_0 0
Z_305_6_1 0
Z_305_6_2 0
Z_305_6_3 0
Z_305_6_4 1
Z_305_2_0 0
Z_305_2_1 0
Z_305_2_2 0
Z_305_2_3 0
Z_305_2_4 1
Z_305_4_0 0
Z_305_4_1 0
Z_305_4_2 0
Z_305_4_3 0
Z_305_4_4 1
Z_305_9_0 0
Z_305_9_1 0
Z_305_9_2 0
Z_305_9_3 0
Z_305_9_4 1
Z_305_5_0 0
Z_305_5_1 0
Z_305_5_2 0
Z_305_5_3 0
Z_305_5_4 1
Z_172_0_0 0
Z_172_0_1 0
Z_172_0_2 1
Z_172_0_3 0
Z_172_0_4 0
Z_255_0_0 0
Z_255_0_1 0
Z_255_0_2 1
Z_255_0_3 0
Z_255_0_4 0
Z_268_0_0 0
Z_268_0_1 1
Z_268_0_2 0
Z_268_0_3 0
Z_268_0_4 0
Z_648_0_0 0
Z_648_0_1 0
Z_648_0_2 0
Z_648_0_3 0
Z_648_0_4 1
Z_648_4_0 0
Z_648_4_1 0
Z_648_4_2 0
Z_648_4_3 0
Z_648_4_4 1
Z_648_2_0 0
Z_648_2_1 0
Z_648_2_2 0
Z_648_2_3 0
Z_648_2_4 1
Z_648_1_0 0
Z_648_1_1 0
Z_648_1_2 0
Z_648_1_3 0
Z_648_1_4 1
Z_648_5_0 0
Z_648_5_1 0
Z_648_5_2 0
Z_648_5_3 0
Z_648_5_4 1
Z_648_3_0 1
Z_648_3_1 0
Z_648_3_2 0
Z_648_3_3 0
Z_648_3_4 0
Z_648_17_0 0
Z_648_17_1 0
Z_648_17_2 1
Z_648_17_3 0
Z_648_17_4 0
Z_89_4_0 0
Z_89_4_1 0
Z_89_4_2 0
Z_89_4_3 0
Z_89_4_4 1
Z_89_1_0 0
Z_89_1_1 0
Z_89_1_2 1
Z_89_1_3 0
Z_89_1_4 0
Z_89_6_0 0
Z_89_6_1 0
Z_89_6_2 0
Z_89_6_3 0
Z_89_6_4 1
Z_89_2_0 0
Z_89_2_1 0
Z_89_2_2 0
Z_89_2_3 1
Z_89_2_4 0
Z_89_3_0 0
Z_89_3_1 0
Z_89_3_2 0
Z_89_3_3 0
Z_89_3_4 1
Z_89_0_0 0
Z_89_0_1 0
Z_89_0_2 0
Z_89_0_3 0
Z_89_0_4 1
Z_274_1_0 0
Z_274_1_1 0
Z_274_1_2 0
Z_274_1_3 0
Z_274_1_4 1
Z_274_0_0 0
Z_274_0_1 0
Z_274_0_2 1
Z_274_0_3 0
Z_274_0_4 0
Z_20_0_0 0
Z_20_0_1 0
Z_20_0_2 0
Z_20_0_3 0
Z_20_0_4 1
Z_534_0_0 0
Z_534_0_1 1
Z_534_0_2 0
Z_534_0_3 0
Z_534_0_4 0
Z_301_0_0 0
Z_301_0_1 0
Z_301_0_2 1
Z_301_0_3 0
Z_301_0_4 0
Z_737_0_0 0
Z_737_0_1 1
Z_737_0_2 0
Z_737_0_3 0
Z_737_0_4 0
Z_737_2_0 0
Z_737_2_1 0
Z_737_2_2 0
Z_737_2_3 0
Z_737_2_4 1
Z_737_4_0 0
Z_737_4_1 0
Z_737_4_2 0
Z_737_4_3 0
Z_737_4_4 1
Z_737_5_0 0
Z_737_5_1 0
Z_737_5_2 0
Z_737_5_3 0
Z_737_5_4 1
Z_737_1_0 0
Z_737_1_1 0
Z_737_1_2 0
Z_737_1_3 0
Z_737_1_4 1
Z_737_3_0 0
Z_737_3_1 0
Z_737_3_2 0
Z_737_3_3 0
Z_737_3_4 1
Z_737_6_0 0
Z_737_6_1 0
Z_737_6_2 0
Z_737_6_3 0
Z_737_6_4 1
Z_480_0_0 0
Z_480_0_1 0
Z_480_0_2 1
Z_480_0_3 0
Z_480_0_4 0
Z_480_3_0 0
Z_480_3_1 0
Z_480_3_2 0
Z_480_3_3 0
Z_480_3_4 1
Z_323_0_0 0
Z_323_0_1 1
Z_323_0_2 0
Z_323_0_3 0
Z_323_0_4 0
Z_173_0_0 0
Z_173_0_1 0
Z_173_0_2 1
Z_173_0_3 0
Z_173_0_4 0
Z_173_3_0 0
Z_173_3_1 0
Z_173_3_2 0
Z_173_3_3 1
Z_173_3_4 0
Z_173_2_0 0
Z_173_2_1 0
Z_173_2_2 0
Z_173_2_3 0
Z_173_2_4 1
Z_173_1_0 0
Z_173_1_1 0
Z_173_1_2 0
Z_173_1_3 0
Z_173_1_4 1
Z_184_0_0 0
Z_184_0_1 0
Z_184_0_2 0
Z_184_0_3 0
Z_184_0_4 1
